p cnf 965 2478
51 -698 -699 0
-51 698 0
-51 699 0
52 -51 -3 0
-52 51 0
-52 3 0
53 -5 -4 0
-53 5 0
-53 4 0
54 -53 -700 0
-54 53 0
-54 700 0
55 -701 -702 0
-55 701 0
-55 702 0
56 -703 -704 0
-56 703 0
-56 704 0
57 -56 -705 0
-57 56 0
-57 705 0
58 -706 -55 0
-58 706 0
-58 55 0
59 -707 -6 0
-59 707 0
-59 6 0
60 -59 -708 0
-60 59 0
-60 708 0
61 -709 -58 0
-61 709 0
-61 58 0
62 -13 -12 0
-62 13 0
-62 12 0
63 -62 -710 0
-63 62 0
-63 710 0
64 -711 -61 0
-64 711 0
-64 61 0
65 -15 -712 0
-65 15 0
-65 712 0
66 -65 -713 0
-66 65 0
-66 713 0
67 -714 -64 0
-67 714 0
-67 64 0
68 -18 -715 0
-68 18 0
-68 715 0
69 -68 -19 0
-69 68 0
-69 19 0
70 -716 -67 0
-70 716 0
-70 67 0
71 -717 -718 0
-71 717 0
-71 718 0
72 -71 -710 0
-72 71 0
-72 710 0
73 -719 -70 0
-73 719 0
-73 70 0
74 -20 -10 0
-74 20 0
-74 10 0
75 -74 -19 0
-75 74 0
-75 19 0
76 -720 -73 0
-76 720 0
-76 73 0
77 -22 -721 0
-77 22 0
-77 721 0
78 -77 -23 0
-78 77 0
-78 23 0
79 -722 -76 0
-79 722 0
-79 76 0
80 -723 -707 0
-80 723 0
-80 707 0
81 -80 -25 0
-81 80 0
-81 25 0
82 -724 -79 0
-82 724 0
-82 79 0
83 -27 -26 0
-83 27 0
-83 26 0
84 -83 -28 0
-84 83 0
-84 28 0
85 -725 -82 0
-85 725 0
-85 82 0
86 -726 -727 0
-86 726 0
-86 727 0
87 -86 -10 0
-87 86 0
-87 10 0
88 -728 -85 0
-88 728 0
-88 85 0
89 -31 -705 0
-89 31 0
-89 705 0
90 -89 -729 0
-90 89 0
-90 729 0
91 -730 -88 0
-91 730 0
-91 88 0
92 -726 -698 0
-92 726 0
-92 698 0
93 -92 -708 0
-93 92 0
-93 708 0
94 -731 -91 0
-94 731 0
-94 91 0
95 -32 -25 0
-95 32 0
-95 25 0
96 -95 -6 0
-96 95 0
-96 6 0
97 -732 -94 0
-97 732 0
-97 94 0
98 -733 -33 0
-98 733 0
-98 33 0
99 -98 -734 0
-99 98 0
-99 734 0
100 -735 -97 0
-100 735 0
-100 97 0
101 -25 -717 0
-101 25 0
-101 717 0
102 -101 -16 0
-102 101 0
-102 16 0
103 -736 -100 0
-103 736 0
-103 100 0
104 -5 -737 0
-104 5 0
-104 737 0
105 -104 -738 0
-105 104 0
-105 738 0
106 -739 -103 0
-106 739 0
-106 103 0
107 -12 -2 0
-107 12 0
-107 2 0
108 -107 -24 0
-108 107 0
-108 24 0
109 -740 -106 0
-109 740 0
-109 106 0
110 -741 -712 0
-110 741 0
-110 712 0
111 -110 -742 0
-111 110 0
-111 742 0
112 -743 -109 0
-112 743 0
-112 109 0
113 -717 -737 0
-113 717 0
-113 737 0
114 -113 -710 0
-114 113 0
-114 710 0
115 -744 -112 0
-115 744 0
-115 112 0
116 -745 -746 0
-116 745 0
-116 746 0
117 -116 -11 0
-117 116 0
-117 11 0
118 -747 -115 0
-118 747 0
-118 115 0
119 -18 -3 0
-119 18 0
-119 3 0
120 -119 -14 0
-120 119 0
-120 14 0
121 -748 -118 0
-121 748 0
-121 118 0
122 -749 -4 0
-122 749 0
-122 4 0
123 -122 -704 0
-123 122 0
-123 704 0
124 -750 -121 0
-124 750 0
-124 121 0
125 -26 -5 0
-125 26 0
-125 5 0
126 -125 -12 0
-126 125 0
-126 12 0
127 -751 -124 0
-127 751 0
-127 124 0
128 -752 -9 0
-128 752 0
-128 9 0
129 -128 -753 0
-129 128 0
-129 753 0
130 -754 -127 0
-130 754 0
-130 127 0
131 -749 -698 0
-131 749 0
-131 698 0
132 -131 -712 0
-132 131 0
-132 712 0
133 -755 -130 0
-133 755 0
-133 130 0
134 -40 -29 0
-134 40 0
-134 29 0
135 -134 -15 0
-135 134 0
-135 15 0
136 -756 -133 0
-136 756 0
-136 133 0
137 -41 -6 0
-137 41 0
-137 6 0
138 -137 -757 0
-138 137 0
-138 757 0
139 -758 -136 0
-139 758 0
-139 136 0
140 -35 -704 0
-140 35 0
-140 704 0
141 -140 -759 0
-141 140 0
-141 759 0
142 -760 -139 0
-142 760 0
-142 139 0
143 -752 -761 0
-143 752 0
-143 761 0
144 -143 -708 0
-144 143 0
-144 708 0
145 -762 -142 0
-145 762 0
-145 142 0
146 -12 -3 0
-146 12 0
-146 3 0
147 -146 -6 0
-147 146 0
-147 6 0
148 -763 -145 0
-148 763 0
-148 145 0
149 -764 -19 0
-149 764 0
-149 19 0
150 -149 -14 0
-150 149 0
-150 14 0
151 -765 -148 0
-151 765 0
-151 148 0
152 -34 -21 0
-152 34 0
-152 21 0
153 -152 -44 0
-153 152 0
-153 44 0
154 -766 -151 0
-154 766 0
-154 151 0
155 -726 -767 0
-155 726 0
-155 767 0
156 -155 -23 0
-156 155 0
-156 23 0
157 -768 -154 0
-157 768 0
-157 154 0
158 -28 -769 0
-158 28 0
-158 769 0
159 -158 -9 0
-159 158 0
-159 9 0
160 -770 -157 0
-160 770 0
-160 157 0
161 -723 -3 0
-161 723 0
-161 3 0
162 -161 -15 0
-162 161 0
-162 15 0
163 -771 -160 0
-163 771 0
-163 160 0
164 -738 -32 0
-164 738 0
-164 32 0
165 -164 -721 0
-165 164 0
-165 721 0
166 -772 -163 0
-166 772 0
-166 163 0
167 -773 -26 0
-167 773 0
-167 26 0
168 -167 -45 0
-168 167 0
-168 45 0
169 -774 -166 0
-169 774 0
-169 166 0
170 -729 -13 0
-170 729 0
-170 13 0
171 -170 -6 0
-171 170 0
-171 6 0
172 -775 -169 0
-172 775 0
-172 169 0
173 -733 -32 0
-173 733 0
-173 32 0
174 -173 -43 0
-174 173 0
-174 43 0
175 -776 -172 0
-175 776 0
-175 172 0
176 -36 -777 0
-176 36 0
-176 777 0
177 -176 -28 0
-177 176 0
-177 28 0
178 -778 -175 0
-178 778 0
-178 175 0
179 -33 -1 0
-179 33 0
-179 1 0
180 -179 -36 0
-180 179 0
-180 36 0
181 -779 -178 0
-181 779 0
-181 178 0
182 -37 -767 0
-182 37 0
-182 767 0
183 -182 -780 0
-183 182 0
-183 780 0
184 -781 -181 0
-184 781 0
-184 181 0
185 -738 -1 0
-185 738 0
-185 1 0
186 -185 -15 0
-186 185 0
-186 15 0
187 -782 -184 0
-187 782 0
-187 184 0
188 -47 -764 0
-188 47 0
-188 764 0
189 -188 -705 0
-189 188 0
-189 705 0
190 -783 -187 0
-190 783 0
-190 187 0
191 -31 -715 0
-191 31 0
-191 715 0
192 -191 -784 0
-192 191 0
-192 784 0
193 -785 -190 0
-193 785 0
-193 190 0
194 -20 -12 0
-194 20 0
-194 12 0
195 -194 -726 0
-195 194 0
-195 726 0
196 -786 -193 0
-196 786 0
-196 193 0
197 -742 -718 0
-197 742 0
-197 718 0
198 -197 -11 0
-198 197 0
-198 11 0
199 -787 -196 0
-199 787 0
-199 196 0
200 -13 -2 0
-200 13 0
-200 2 0
201 -200 -22 0
-201 200 0
-201 22 0
202 -788 -199 0
-202 788 0
-202 199 0
203 -39 -30 0
-203 39 0
-203 30 0
204 -203 -789 0
-204 203 0
-204 789 0
205 -790 -202 0
-205 790 0
-205 202 0
206 -45 -769 0
-206 45 0
-206 769 0
207 -206 -22 0
-207 206 0
-207 22 0
208 -791 -205 0
-208 791 0
-208 205 0
209 -761 -13 0
-209 761 0
-209 13 0
210 -209 -25 0
-210 209 0
-210 25 0
211 -792 -208 0
-211 792 0
-211 208 0
212 -29 -707 0
-212 29 0
-212 707 0
213 -212 -48 0
-213 212 0
-213 48 0
214 -793 -211 0
-214 793 0
-214 211 0
215 -794 -749 0
-215 794 0
-215 749 0
216 -215 -795 0
-216 215 0
-216 795 0
217 -796 -214 0
-217 796 0
-217 214 0
218 -35 -712 0
-218 35 0
-218 712 0
219 -218 -28 0
-219 218 0
-219 28 0
220 -797 -217 0
-220 797 0
-220 217 0
221 -727 -12 0
-221 727 0
-221 12 0
222 -221 -44 0
-222 221 0
-222 44 0
223 -798 -220 0
-223 798 0
-223 220 0
224 -17 -5 0
-224 17 0
-224 5 0
225 -224 -745 0
-225 224 0
-225 745 0
226 -799 -223 0
-226 799 0
-226 223 0
227 -789 -723 0
-227 789 0
-227 723 0
228 -227 -703 0
-228 227 0
-228 703 0
229 -800 -226 0
-229 800 0
-229 226 0
230 -794 -34 0
-230 794 0
-230 34 0
231 -230 -36 0
-231 230 0
-231 36 0
232 -801 -229 0
-232 801 0
-232 229 0
233 -802 -777 0
-233 802 0
-233 777 0
234 -233 -721 0
-234 233 0
-234 721 0
235 -803 -232 0
-235 803 0
-235 232 0
236 -738 -784 0
-236 738 0
-236 784 0
237 -236 -22 0
-237 236 0
-237 22 0
238 -804 -235 0
-238 804 0
-238 235 0
239 -802 -761 0
-239 802 0
-239 761 0
240 -239 -712 0
-240 239 0
-240 712 0
241 -805 -238 0
-241 805 0
-241 238 0
242 -42 -6 0
-242 42 0
-242 6 0
243 -242 -718 0
-243 242 0
-243 718 0
244 -806 -241 0
-244 806 0
-244 241 0
245 -715 -698 0
-245 715 0
-245 698 0
246 -245 -42 0
-246 245 0
-246 42 0
247 -807 -244 0
-247 807 0
-247 244 0
248 -45 -710 0
-248 45 0
-248 710 0
249 -248 -780 0
-249 248 0
-249 780 0
250 -808 -247 0
-250 808 0
-250 247 0
251 -47 -1 0
-251 47 0
-251 1 0
252 -251 -710 0
-252 251 0
-252 710 0
253 -809 -250 0
-253 809 0
-253 250 0
254 -41 -746 0
-254 41 0
-254 746 0
255 -254 -7 0
-255 254 0
-255 7 0
256 -810 -253 0
-256 810 0
-256 253 0
257 -811 -7 0
-257 811 0
-257 7 0
258 -257 -23 0
-258 257 0
-258 23 0
259 -812 -256 0
-259 812 0
-259 256 0
260 -738 -20 0
-260 738 0
-260 20 0
261 -260 -36 0
-261 260 0
-261 36 0
262 -813 -259 0
-262 813 0
-262 259 0
263 -8 -737 0
-263 8 0
-263 737 0
264 -263 -742 0
-264 263 0
-264 742 0
265 -814 -262 0
-265 814 0
-265 262 0
266 -769 -777 0
-266 769 0
-266 777 0
267 -266 -44 0
-267 266 0
-267 44 0
268 -815 -265 0
-268 815 0
-268 265 0
269 -752 -816 0
-269 752 0
-269 816 0
270 -269 -718 0
-270 269 0
-270 718 0
271 -817 -268 0
-271 817 0
-271 268 0
272 -8 -1 0
-272 8 0
-272 1 0
273 -272 -708 0
-273 272 0
-273 708 0
274 -818 -271 0
-274 818 0
-274 271 0
275 -32 -761 0
-275 32 0
-275 761 0
276 -275 -46 0
-276 275 0
-276 46 0
277 -819 -274 0
-277 819 0
-277 274 0
278 -784 -699 0
-278 784 0
-278 699 0
279 -278 -27 0
-279 278 0
-279 27 0
280 -820 -277 0
-280 820 0
-280 277 0
281 -18 -784 0
-281 18 0
-281 784 0
282 -281 -46 0
-282 281 0
-282 46 0
283 -821 -280 0
-283 821 0
-283 280 0
284 -27 -7 0
-284 27 0
-284 7 0
285 -284 -713 0
-285 284 0
-285 713 0
286 -822 -283 0
-286 822 0
-286 283 0
287 -764 -723 0
-287 764 0
-287 723 0
288 -287 -767 0
-288 287 0
-288 767 0
289 -823 -286 0
-289 823 0
-289 286 0
290 -41 -27 0
-290 41 0
-290 27 0
291 -290 -22 0
-291 290 0
-291 22 0
292 -824 -289 0
-292 824 0
-292 289 0
293 -31 -27 0
-293 31 0
-293 27 0
294 -293 -42 0
-294 293 0
-294 42 0
295 -825 -292 0
-295 825 0
-295 292 0
296 -746 -25 0
-296 746 0
-296 25 0
297 -296 -11 0
-297 296 0
-297 11 0
298 -826 -295 0
-298 826 0
-298 295 0
299 -7 -4 0
-299 7 0
-299 4 0
300 -299 -742 0
-300 299 0
-300 742 0
301 -827 -298 0
-301 827 0
-301 298 0
302 -828 -4 0
-302 828 0
-302 4 0
303 -302 -34 0
-303 302 0
-303 34 0
304 -829 -301 0
-304 829 0
-304 301 0
305 -816 -705 0
-305 816 0
-305 705 0
306 -305 -46 0
-306 305 0
-306 46 0
307 -830 -304 0
-307 830 0
-307 304 0
308 -31 -25 0
-308 31 0
-308 25 0
309 -308 -3 0
-309 308 0
-309 3 0
310 -831 -307 0
-310 831 0
-310 307 0
311 -40 -767 0
-311 40 0
-311 767 0
312 -311 -11 0
-312 311 0
-312 11 0
313 -832 -310 0
-313 832 0
-313 310 0
314 -29 -5 0
-314 29 0
-314 5 0
315 -314 -784 0
-315 314 0
-315 784 0
316 -833 -313 0
-316 833 0
-316 313 0
317 -741 -12 0
-317 741 0
-317 12 0
318 -317 -795 0
-318 317 0
-318 795 0
319 -834 -316 0
-319 834 0
-319 316 0
320 -773 -5 0
-320 773 0
-320 5 0
321 -320 -17 0
-321 320 0
-321 17 0
322 -835 -319 0
-322 835 0
-322 319 0
323 -745 -708 0
-323 745 0
-323 708 0
324 -323 -16 0
-324 323 0
-324 16 0
325 -836 -322 0
-325 836 0
-325 322 0
326 -24 -777 0
-326 24 0
-326 777 0
327 -326 -6 0
-327 326 0
-327 6 0
328 -837 -325 0
-328 837 0
-328 325 0
329 -39 -698 0
-329 39 0
-329 698 0
330 -329 -734 0
-330 329 0
-330 734 0
331 -838 -328 0
-331 838 0
-331 328 0
332 -47 -41 0
-332 47 0
-332 41 0
333 -332 -764 0
-333 332 0
-333 764 0
334 -839 -331 0
-334 839 0
-334 331 0
335 -795 -27 0
-335 795 0
-335 27 0
336 -335 -780 0
-336 335 0
-336 780 0
337 -840 -334 0
-337 840 0
-337 334 0
338 -733 -784 0
-338 733 0
-338 784 0
339 -338 -710 0
-339 338 0
-339 710 0
340 -841 -337 0
-340 841 0
-340 337 0
341 -32 -723 0
-341 32 0
-341 723 0
342 -341 -842 0
-342 341 0
-342 842 0
343 -843 -340 0
-343 843 0
-343 340 0
344 -844 -2 0
-344 844 0
-344 2 0
345 -344 -767 0
-345 344 0
-345 767 0
346 -845 -343 0
-346 845 0
-346 343 0
347 -764 -715 0
-347 764 0
-347 715 0
348 -347 -767 0
-348 347 0
-348 767 0
349 -846 -346 0
-349 846 0
-349 346 0
350 -844 -811 0
-350 844 0
-350 811 0
351 -350 -712 0
-351 350 0
-351 712 0
352 -847 -349 0
-352 847 0
-352 349 0
353 -746 -700 0
-353 746 0
-353 700 0
354 -353 -842 0
-354 353 0
-354 842 0
355 -848 -352 0
-355 848 0
-355 352 0
356 -749 -10 0
-356 749 0
-356 10 0
357 -356 -8 0
-357 356 0
-357 8 0
358 -849 -355 0
-358 849 0
-358 355 0
359 -33 -707 0
-359 33 0
-359 707 0
360 -359 -34 0
-360 359 0
-360 34 0
361 -850 -358 0
-361 850 0
-361 358 0
362 -15 -1 0
-362 15 0
-362 1 0
363 -362 -842 0
-363 362 0
-363 842 0
364 -851 -361 0
-364 851 0
-364 361 0
365 -34 -12 0
-365 34 0
-365 12 0
366 -365 -759 0
-366 365 0
-366 759 0
367 -852 -364 0
-367 852 0
-367 364 0
368 -24 -10 0
-368 24 0
-368 10 0
369 -368 -28 0
-369 368 0
-369 28 0
370 -853 -367 0
-370 853 0
-370 367 0
371 -802 -30 0
-371 802 0
-371 30 0
372 -371 -18 0
-372 371 0
-372 18 0
373 -854 -370 0
-373 854 0
-373 370 0
374 -49 -45 0
-374 49 0
-374 45 0
375 -374 -759 0
-375 374 0
-375 759 0
376 -855 -373 0
-376 855 0
-376 373 0
377 -752 -726 0
-377 752 0
-377 726 0
378 -377 -23 0
-378 377 0
-378 23 0
379 -856 -376 0
-379 856 0
-379 376 0
380 -47 -39 0
-380 47 0
-380 39 0
381 -380 -25 0
-381 380 0
-381 25 0
382 -857 -379 0
-382 857 0
-382 379 0
383 -41 -816 0
-383 41 0
-383 816 0
384 -383 -794 0
-384 383 0
-384 794 0
385 -858 -382 0
-385 858 0
-385 382 0
386 -329 -37 0
-386 329 0
-386 37 0
387 -859 -385 0
-387 859 0
-387 385 0
388 -761 -29 0
-388 761 0
-388 29 0
389 -388 -14 0
-389 388 0
-389 14 0
390 -860 -387 0
-390 860 0
-390 387 0
391 -742 -31 0
-391 742 0
-391 31 0
392 -391 -710 0
-392 391 0
-392 710 0
393 -861 -390 0
-393 861 0
-393 390 0
394 -17 -784 0
-394 17 0
-394 784 0
395 -394 -862 0
-395 394 0
-395 862 0
396 -863 -393 0
-396 863 0
-396 393 0
397 -802 -31 0
-397 802 0
-397 31 0
398 -397 -712 0
-398 397 0
-398 712 0
399 -864 -396 0
-399 864 0
-399 396 0
400 -811 -784 0
-400 811 0
-400 784 0
401 -400 -9 0
-401 400 0
-401 9 0
402 -865 -399 0
-402 865 0
-402 399 0
403 -811 -29 0
-403 811 0
-403 29 0
404 -403 -18 0
-404 403 0
-404 18 0
405 -866 -402 0
-405 866 0
-405 402 0
406 -39 -761 0
-406 39 0
-406 761 0
407 -406 -8 0
-407 406 0
-407 8 0
408 -867 -405 0
-408 867 0
-408 405 0
409 -708 -4 0
-409 708 0
-409 4 0
410 -409 -780 0
-410 409 0
-410 780 0
411 -868 -408 0
-411 868 0
-411 408 0
412 -802 -698 0
-412 802 0
-412 698 0
413 -412 -13 0
-413 412 0
-413 13 0
414 -869 -411 0
-414 869 0
-414 411 0
415 -50 -704 0
-415 50 0
-415 704 0
416 -415 -8 0
-416 415 0
-416 8 0
417 -870 -414 0
-417 870 0
-417 414 0
418 -745 -24 0
-418 745 0
-418 24 0
419 -418 -6 0
-419 418 0
-419 6 0
420 -871 -417 0
-420 871 0
-420 417 0
421 -43 -26 0
-421 43 0
-421 26 0
422 -421 -712 0
-422 421 0
-422 712 0
423 -872 -420 0
-423 872 0
-423 420 0
424 -752 -773 0
-424 752 0
-424 773 0
425 -424 -23 0
-425 424 0
-425 23 0
426 -873 -423 0
-426 873 0
-426 423 0
427 -749 -727 0
-427 749 0
-427 727 0
428 -427 -43 0
-428 427 0
-428 43 0
429 -874 -426 0
-429 874 0
-429 426 0
430 -29 -26 0
-430 29 0
-430 26 0
431 -430 -844 0
-431 430 0
-431 844 0
432 -875 -429 0
-432 875 0
-432 429 0
433 -302 -26 0
-433 302 0
-433 26 0
434 -876 -432 0
-434 876 0
-434 432 0
435 -27 -769 0
-435 27 0
-435 769 0
436 -435 -11 0
-436 435 0
-436 11 0
437 -877 -434 0
-437 877 0
-437 434 0
438 -48 -28 0
-438 48 0
-438 28 0
439 -438 -16 0
-439 438 0
-439 16 0
440 -878 -437 0
-440 878 0
-440 437 0
441 -727 -789 0
-441 727 0
-441 789 0
442 -441 -844 0
-442 441 0
-442 844 0
443 -879 -440 0
-443 879 0
-443 440 0
444 -828 -32 0
-444 828 0
-444 32 0
445 -444 -703 0
-445 444 0
-445 703 0
446 -880 -443 0
-446 880 0
-446 443 0
447 -862 -13 0
-447 862 0
-447 13 0
448 -447 -718 0
-448 447 0
-448 718 0
449 -881 -446 0
-449 881 0
-449 446 0
450 -761 -4 0
-450 761 0
-450 4 0
451 -450 -36 0
-451 450 0
-451 36 0
452 -882 -449 0
-452 882 0
-452 449 0
453 -12 -9 0
-453 12 0
-453 9 0
454 -453 -710 0
-454 453 0
-454 710 0
455 -883 -452 0
-455 883 0
-455 452 0
456 -828 -795 0
-456 828 0
-456 795 0
457 -456 -742 0
-457 456 0
-457 742 0
458 -884 -455 0
-458 884 0
-458 455 0
459 -12 -708 0
-459 12 0
-459 708 0
460 -459 -713 0
-460 459 0
-460 713 0
461 -885 -458 0
-461 885 0
-461 458 0
462 -50 -707 0
-462 50 0
-462 707 0
463 -462 -6 0
-463 462 0
-463 6 0
464 -886 -461 0
-464 886 0
-464 461 0
465 -49 -35 0
-465 49 0
-465 35 0
466 -465 -46 0
-466 465 0
-466 46 0
467 -887 -464 0
-467 887 0
-467 464 0
468 -721 -4 0
-468 721 0
-468 4 0
469 -468 -18 0
-469 468 0
-469 18 0
470 -888 -467 0
-470 888 0
-470 467 0
471 -729 -769 0
-471 729 0
-471 769 0
472 -471 -710 0
-472 471 0
-472 710 0
473 -889 -470 0
-473 889 0
-473 470 0
474 -752 -749 0
-474 752 0
-474 749 0
475 -474 -35 0
-475 474 0
-475 35 0
476 -890 -473 0
-476 890 0
-476 473 0
477 -50 -764 0
-477 50 0
-477 764 0
478 -477 -708 0
-478 477 0
-478 708 0
479 -891 -476 0
-479 891 0
-479 476 0
480 -32 -698 0
-480 32 0
-480 698 0
481 -480 -741 0
-481 480 0
-481 741 0
482 -892 -479 0
-482 892 0
-482 479 0
483 -32 -784 0
-483 32 0
-483 784 0
484 -483 -741 0
-484 483 0
-484 741 0
485 -893 -482 0
-485 893 0
-485 482 0
486 -727 -10 0
-486 727 0
-486 10 0
487 -486 -15 0
-487 486 0
-487 15 0
488 -894 -485 0
-488 894 0
-488 485 0
489 -40 -35 0
-489 40 0
-489 35 0
490 -489 -713 0
-490 489 0
-490 713 0
491 -895 -488 0
-491 895 0
-491 488 0
492 -802 -5 0
-492 802 0
-492 5 0
493 -492 -2 0
-493 492 0
-493 2 0
494 -896 -491 0
-494 896 0
-494 491 0
495 -759 -752 0
-495 759 0
-495 752 0
496 -495 -16 0
-496 495 0
-496 16 0
497 -897 -494 0
-497 897 0
-497 494 0
498 -741 -769 0
-498 741 0
-498 769 0
499 -498 -50 0
-499 498 0
-499 50 0
500 -898 -497 0
-500 898 0
-500 497 0
501 -761 -22 0
-501 761 0
-501 22 0
502 -501 -11 0
-502 501 0
-502 11 0
503 -899 -500 0
-503 899 0
-503 500 0
504 -50 -27 0
-504 50 0
-504 27 0
505 -504 -705 0
-505 504 0
-505 705 0
506 -900 -503 0
-506 900 0
-506 503 0
507 -36 -19 0
-507 36 0
-507 19 0
508 -507 -713 0
-508 507 0
-508 713 0
509 -901 -506 0
-509 901 0
-509 506 0
510 -759 -721 0
-510 759 0
-510 721 0
511 -510 -742 0
-511 510 0
-511 742 0
512 -902 -509 0
-512 902 0
-512 509 0
513 -752 -8 0
-513 752 0
-513 8 0
514 -513 -42 0
-514 513 0
-514 42 0
515 -903 -512 0
-515 903 0
-515 512 0
516 -767 -15 0
-516 767 0
-516 15 0
517 -516 -713 0
-517 516 0
-517 713 0
518 -904 -515 0
-518 904 0
-518 515 0
519 -19 -17 0
-519 19 0
-519 17 0
520 -519 -16 0
-520 519 0
-520 16 0
521 -905 -518 0
-521 905 0
-521 518 0
522 -802 -10 0
-522 802 0
-522 10 0
523 -522 -704 0
-523 522 0
-523 704 0
524 -906 -521 0
-524 906 0
-524 521 0
525 -36 -34 0
-525 36 0
-525 34 0
526 -525 -22 0
-526 525 0
-526 22 0
527 -907 -524 0
-527 907 0
-527 524 0
528 -746 -30 0
-528 746 0
-528 30 0
529 -528 -795 0
-529 528 0
-529 795 0
530 -908 -527 0
-530 908 0
-530 527 0
531 -33 -26 0
-531 33 0
-531 26 0
532 -531 -713 0
-532 531 0
-532 713 0
533 -909 -530 0
-533 909 0
-533 530 0
534 -811 -773 0
-534 811 0
-534 773 0
535 -534 -23 0
-535 534 0
-535 23 0
536 -910 -533 0
-536 910 0
-536 533 0
537 -752 -3 0
-537 752 0
-537 3 0
538 -537 -767 0
-538 537 0
-538 767 0
539 -911 -536 0
-539 911 0
-539 536 0
540 -28 -729 0
-540 28 0
-540 729 0
541 -540 -718 0
-541 540 0
-541 718 0
542 -912 -539 0
-542 912 0
-542 539 0
543 -41 -753 0
-543 41 0
-543 753 0
544 -543 -842 0
-544 543 0
-544 842 0
545 -913 -542 0
-545 913 0
-545 542 0
546 -733 -777 0
-546 733 0
-546 777 0
547 -546 -18 0
-547 546 0
-547 18 0
548 -914 -545 0
-548 914 0
-548 545 0
549 -773 -27 0
-549 773 0
-549 27 0
550 -549 -757 0
-550 549 0
-550 757 0
551 -915 -548 0
-551 915 0
-551 548 0
552 -745 -699 0
-552 745 0
-552 699 0
553 -552 -18 0
-553 552 0
-553 18 0
554 -916 -551 0
-554 916 0
-554 551 0
555 -20 -5 0
-555 20 0
-555 5 0
556 -555 -8 0
-556 555 0
-556 8 0
557 -917 -554 0
-557 917 0
-557 554 0
558 -705 -703 0
-558 705 0
-558 703 0
559 -558 -18 0
-559 558 0
-559 18 0
560 -918 -557 0
-560 918 0
-560 557 0
561 -49 -26 0
-561 49 0
-561 26 0
562 -561 -759 0
-562 561 0
-562 759 0
563 -919 -560 0
-563 919 0
-563 560 0
564 -5 -2 0
-564 5 0
-564 2 0
565 -564 -25 0
-565 564 0
-565 25 0
566 -920 -563 0
-566 920 0
-566 563 0
567 -733 -17 0
-567 733 0
-567 17 0
568 -567 -50 0
-568 567 0
-568 50 0
569 -921 -566 0
-569 921 0
-569 566 0
570 -828 -737 0
-570 828 0
-570 737 0
571 -570 -705 0
-571 570 0
-571 705 0
572 -922 -569 0
-572 922 0
-572 569 0
573 -703 -737 0
-573 703 0
-573 737 0
574 -573 -18 0
-574 573 0
-574 18 0
575 -923 -572 0
-575 923 0
-575 572 0
576 -738 -18 0
-576 738 0
-576 18 0
577 -576 -842 0
-577 576 0
-577 842 0
578 -924 -575 0
-578 924 0
-578 575 0
579 -308 -15 0
-579 308 0
-579 15 0
580 -925 -578 0
-580 925 0
-580 578 0
581 -738 -28 0
-581 738 0
-581 28 0
582 -581 -734 0
-582 581 0
-582 734 0
583 -926 -580 0
-583 926 0
-583 580 0
584 -707 -777 0
-584 707 0
-584 777 0
585 -584 -723 0
-585 584 0
-585 723 0
586 -927 -583 0
-586 927 0
-586 583 0
587 -50 -33 0
-587 50 0
-587 33 0
588 -587 -48 0
-588 587 0
-588 48 0
589 -928 -586 0
-589 928 0
-589 586 0
590 -42 -19 0
-590 42 0
-590 19 0
591 -590 -710 0
-591 590 0
-591 710 0
592 -929 -589 0
-592 929 0
-592 589 0
593 -733 -721 0
-593 733 0
-593 721 0
594 -593 -37 0
-594 593 0
-594 37 0
595 -930 -592 0
-595 930 0
-595 592 0
596 -746 -6 0
-596 746 0
-596 6 0
597 -596 -46 0
-597 596 0
-597 46 0
598 -931 -595 0
-598 931 0
-598 595 0
599 -41 -35 0
-599 41 0
-599 35 0
600 -599 -7 0
-600 599 0
-600 7 0
601 -932 -598 0
-601 932 0
-601 598 0
602 -749 -2 0
-602 749 0
-602 2 0
603 -602 -738 0
-603 602 0
-603 738 0
604 -933 -601 0
-604 933 0
-604 601 0
605 -20 -769 0
-605 20 0
-605 769 0
606 -605 -713 0
-606 605 0
-606 713 0
607 -934 -604 0
-607 934 0
-607 604 0
608 -764 -27 0
-608 764 0
-608 27 0
609 -608 -700 0
-609 608 0
-609 700 0
610 -935 -607 0
-610 935 0
-610 607 0
611 -811 -19 0
-611 811 0
-611 19 0
612 -611 -16 0
-612 611 0
-612 16 0
613 -936 -610 0
-613 936 0
-613 610 0
614 -36 -33 0
-614 36 0
-614 33 0
615 -614 -11 0
-615 614 0
-615 11 0
616 -937 -613 0
-616 937 0
-616 613 0
617 -21 -698 0
-617 21 0
-617 698 0
618 -617 -25 0
-618 617 0
-618 25 0
619 -938 -616 0
-619 938 0
-619 616 0
620 -31 -726 0
-620 31 0
-620 726 0
621 -620 -36 0
-621 620 0
-621 36 0
622 -939 -619 0
-622 939 0
-622 619 0
623 -816 -698 0
-623 816 0
-623 698 0
624 -623 -842 0
-624 623 0
-624 842 0
625 -940 -622 0
-625 940 0
-625 622 0
626 -745 -34 0
-626 745 0
-626 34 0
627 -626 -37 0
-627 626 0
-627 37 0
628 -941 -625 0
-628 941 0
-628 625 0
629 -717 -4 0
-629 717 0
-629 4 0
630 -629 -19 0
-630 629 0
-630 19 0
631 -942 -628 0
-631 942 0
-631 628 0
632 -383 -42 0
-632 383 0
-632 42 0
633 -943 -631 0
-633 943 0
-633 631 0
634 -47 -795 0
-634 47 0
-634 795 0
635 -634 -710 0
-635 634 0
-635 710 0
636 -944 -633 0
-636 944 0
-636 633 0
637 -746 -36 0
-637 746 0
-637 36 0
638 -637 -712 0
-638 637 0
-638 712 0
639 -945 -636 0
-639 945 0
-639 636 0
640 -412 -21 0
-640 412 0
-640 21 0
641 -946 -639 0
-641 946 0
-641 639 0
642 -13 -703 0
-642 13 0
-642 703 0
643 -642 -6 0
-643 642 0
-643 6 0
644 -947 -641 0
-644 947 0
-644 641 0
645 -35 -30 0
-645 35 0
-645 30 0
646 -645 -7 0
-646 645 0
-646 7 0
647 -948 -644 0
-647 948 0
-647 644 0
648 -5 -1 0
-648 5 0
-648 1 0
649 -648 -708 0
-649 648 0
-649 708 0
650 -949 -647 0
-650 949 0
-650 647 0
651 -721 -12 0
-651 721 0
-651 12 0
652 -651 -48 0
-652 651 0
-652 48 0
653 -950 -650 0
-653 950 0
-653 650 0
654 -745 -777 0
-654 745 0
-654 777 0
655 -654 -733 0
-655 654 0
-655 733 0
656 -951 -653 0
-656 951 0
-656 653 0
657 -543 -742 0
-657 543 0
-657 742 0
658 -952 -656 0
-658 952 0
-658 656 0
659 -794 -20 0
-659 794 0
-659 20 0
660 -659 -44 0
-660 659 0
-660 44 0
661 -953 -658 0
-661 953 0
-661 658 0
662 -32 -4 0
-662 32 0
-662 4 0
663 -662 -50 0
-663 662 0
-663 50 0
664 -954 -661 0
-664 954 0
-664 661 0
665 -733 -816 0
-665 733 0
-665 816 0
666 -665 -16 0
-666 665 0
-666 16 0
667 -955 -664 0
-667 955 0
-667 664 0
668 -39 -1 0
-668 39 0
-668 1 0
669 -668 -47 0
-669 668 0
-669 47 0
670 -956 -667 0
-670 956 0
-670 667 0
671 -862 -705 0
-671 862 0
-671 705 0
672 -671 -14 0
-672 671 0
-672 14 0
673 -957 -670 0
-673 957 0
-673 670 0
674 -47 -29 0
-674 47 0
-674 29 0
675 -674 -16 0
-675 674 0
-675 16 0
676 -958 -673 0
-676 958 0
-676 673 0
677 -828 -773 0
-677 828 0
-677 773 0
678 -677 -22 0
-678 677 0
-678 22 0
679 -959 -676 0
-679 959 0
-679 676 0
680 -761 -3 0
-680 761 0
-680 3 0
681 -680 -705 0
-681 680 0
-681 705 0
682 -960 -679 0
-682 960 0
-682 679 0
683 -30 -707 0
-683 30 0
-683 707 0
684 -683 -24 0
-684 683 0
-684 24 0
685 -961 -682 0
-685 961 0
-685 682 0
686 -47 -26 0
-686 47 0
-686 26 0
687 -686 -6 0
-687 686 0
-687 6 0
688 -962 -685 0
-688 962 0
-688 685 0
689 -726 -699 0
-689 726 0
-689 699 0
690 -689 -42 0
-690 689 0
-690 42 0
691 -963 -688 0
-691 963 0
-691 688 0
692 -49 -749 0
-692 49 0
-692 749 0
693 -692 -17 0
-693 692 0
-693 17 0
694 -964 -691 0
-694 964 0
-694 691 0
695 -39 -862 0
-695 39 0
-695 862 0
696 -695 -705 0
-696 695 0
-696 705 0
697 -965 -694 0
-697 965 0
-697 694 0
-698 -2 0
698 2 0
-699 -1 0
699 1 0
-700 -6 0
700 6 0
-701 -54 0
701 54 0
-702 -52 0
702 52 0
-703 -8 0
703 8 0
-704 -7 0
704 7 0
-705 -9 0
705 9 0
-706 -57 0
706 57 0
-707 -10 0
707 10 0
-708 -11 0
708 11 0
-709 -60 0
709 60 0
-710 -14 0
710 14 0
-711 -63 0
711 63 0
-712 -3 0
712 3 0
-713 -16 0
713 16 0
-714 -66 0
714 66 0
-715 -17 0
715 17 0
-716 -69 0
716 69 0
-717 -20 0
717 20 0
-718 -19 0
718 19 0
-719 -72 0
719 72 0
-720 -75 0
720 75 0
-721 -21 0
721 21 0
-722 -78 0
722 78 0
-723 -24 0
723 24 0
-724 -81 0
724 81 0
-725 -84 0
725 84 0
-726 -30 0
726 30 0
-727 -29 0
727 29 0
-728 -87 0
728 87 0
-729 -18 0
729 18 0
-730 -90 0
730 90 0
-731 -93 0
731 93 0
-732 -96 0
732 96 0
-733 -34 0
733 34 0
-734 -23 0
734 23 0
-735 -99 0
735 99 0
-736 -102 0
736 102 0
-737 -4 0
737 4 0
-738 -35 0
738 35 0
-739 -105 0
739 105 0
-740 -108 0
740 108 0
-741 -36 0
741 36 0
-742 -37 0
742 37 0
-743 -111 0
743 111 0
-744 -114 0
744 114 0
-745 -39 0
745 39 0
-746 -38 0
746 38 0
-747 -117 0
747 117 0
-748 -120 0
748 120 0
-749 -32 0
749 32 0
-750 -123 0
750 123 0
-751 -126 0
751 126 0
-752 -40 0
752 40 0
-753 -15 0
753 15 0
-754 -129 0
754 129 0
-755 -132 0
755 132 0
-756 -135 0
756 135 0
-757 -22 0
757 22 0
-758 -138 0
758 138 0
-759 -42 0
759 42 0
-760 -141 0
760 141 0
-761 -31 0
761 31 0
-762 -144 0
762 144 0
-763 -147 0
763 147 0
-764 -43 0
764 43 0
-765 -150 0
765 150 0
-766 -153 0
766 153 0
-767 -28 0
767 28 0
-768 -156 0
768 156 0
-769 -12 0
769 12 0
-770 -159 0
770 159 0
-771 -162 0
771 162 0
-772 -165 0
772 165 0
-773 -33 0
773 33 0
-774 -168 0
774 168 0
-775 -171 0
775 171 0
-776 -174 0
776 174 0
-777 -5 0
777 5 0
-778 -177 0
778 177 0
-779 -180 0
779 180 0
-780 -46 0
780 46 0
-781 -183 0
781 183 0
-782 -186 0
782 186 0
-783 -189 0
783 189 0
-784 -13 0
784 13 0
-785 -192 0
785 192 0
-786 -195 0
786 195 0
-787 -198 0
787 198 0
-788 -201 0
788 201 0
-789 -27 0
789 27 0
-790 -204 0
790 204 0
-791 -207 0
791 207 0
-792 -210 0
792 210 0
-793 -213 0
793 213 0
-794 -47 0
794 47 0
-795 -44 0
795 44 0
-796 -216 0
796 216 0
-797 -219 0
797 219 0
-798 -222 0
798 222 0
-799 -225 0
799 225 0
-800 -228 0
800 228 0
-801 -231 0
801 231 0
-802 -45 0
802 45 0
-803 -234 0
803 234 0
-804 -237 0
804 237 0
-805 -240 0
805 240 0
-806 -243 0
806 243 0
-807 -246 0
807 246 0
-808 -249 0
808 249 0
-809 -252 0
809 252 0
-810 -255 0
810 255 0
-811 -41 0
811 41 0
-812 -258 0
812 258 0
-813 -261 0
813 261 0
-814 -264 0
814 264 0
-815 -267 0
815 267 0
-816 -26 0
816 26 0
-817 -270 0
817 270 0
-818 -273 0
818 273 0
-819 -276 0
819 276 0
-820 -279 0
820 279 0
-821 -282 0
821 282 0
-822 -285 0
822 285 0
-823 -288 0
823 288 0
-824 -291 0
824 291 0
-825 -294 0
825 294 0
-826 -297 0
826 297 0
-827 -300 0
827 300 0
-828 -49 0
828 49 0
-829 -303 0
829 303 0
-830 -306 0
830 306 0
-831 -309 0
831 309 0
-832 -312 0
832 312 0
-833 -315 0
833 315 0
-834 -318 0
834 318 0
-835 -321 0
835 321 0
-836 -324 0
836 324 0
-837 -327 0
837 327 0
-838 -330 0
838 330 0
-839 -333 0
839 333 0
-840 -336 0
840 336 0
-841 -339 0
841 339 0
-842 -48 0
842 48 0
-843 -342 0
843 342 0
-844 -50 0
844 50 0
-845 -345 0
845 345 0
-846 -348 0
846 348 0
-847 -351 0
847 351 0
-848 -354 0
848 354 0
-849 -357 0
849 357 0
-850 -360 0
850 360 0
-851 -363 0
851 363 0
-852 -366 0
852 366 0
-853 -369 0
853 369 0
-854 -372 0
854 372 0
-855 -375 0
855 375 0
-856 -378 0
856 378 0
-857 -381 0
857 381 0
-858 -384 0
858 384 0
-859 -386 0
859 386 0
-860 -389 0
860 389 0
-861 -392 0
861 392 0
-862 -25 0
862 25 0
-863 -395 0
863 395 0
-864 -398 0
864 398 0
-865 -401 0
865 401 0
-866 -404 0
866 404 0
-867 -407 0
867 407 0
-868 -410 0
868 410 0
-869 -413 0
869 413 0
-870 -416 0
870 416 0
-871 -419 0
871 419 0
-872 -422 0
872 422 0
-873 -425 0
873 425 0
-874 -428 0
874 428 0
-875 -431 0
875 431 0
-876 -433 0
876 433 0
-877 -436 0
877 436 0
-878 -439 0
878 439 0
-879 -442 0
879 442 0
-880 -445 0
880 445 0
-881 -448 0
881 448 0
-882 -451 0
882 451 0
-883 -454 0
883 454 0
-884 -457 0
884 457 0
-885 -460 0
885 460 0
-886 -463 0
886 463 0
-887 -466 0
887 466 0
-888 -469 0
888 469 0
-889 -472 0
889 472 0
-890 -475 0
890 475 0
-891 -478 0
891 478 0
-892 -481 0
892 481 0
-893 -484 0
893 484 0
-894 -487 0
894 487 0
-895 -490 0
895 490 0
-896 -493 0
896 493 0
-897 -496 0
897 496 0
-898 -499 0
898 499 0
-899 -502 0
899 502 0
-900 -505 0
900 505 0
-901 -508 0
901 508 0
-902 -511 0
902 511 0
-903 -514 0
903 514 0
-904 -517 0
904 517 0
-905 -520 0
905 520 0
-906 -523 0
906 523 0
-907 -526 0
907 526 0
-908 -529 0
908 529 0
-909 -532 0
909 532 0
-910 -535 0
910 535 0
-911 -538 0
911 538 0
-912 -541 0
912 541 0
-913 -544 0
913 544 0
-914 -547 0
914 547 0
-915 -550 0
915 550 0
-916 -553 0
916 553 0
-917 -556 0
917 556 0
-918 -559 0
918 559 0
-919 -562 0
919 562 0
-920 -565 0
920 565 0
-921 -568 0
921 568 0
-922 -571 0
922 571 0
-923 -574 0
923 574 0
-924 -577 0
924 577 0
-925 -579 0
925 579 0
-926 -582 0
926 582 0
-927 -585 0
927 585 0
-928 -588 0
928 588 0
-929 -591 0
929 591 0
-930 -594 0
930 594 0
-931 -597 0
931 597 0
-932 -600 0
932 600 0
-933 -603 0
933 603 0
-934 -606 0
934 606 0
-935 -609 0
935 609 0
-936 -612 0
936 612 0
-937 -615 0
937 615 0
-938 -618 0
938 618 0
-939 -621 0
939 621 0
-940 -624 0
940 624 0
-941 -627 0
941 627 0
-942 -630 0
942 630 0
-943 -632 0
943 632 0
-944 -635 0
944 635 0
-945 -638 0
945 638 0
-946 -640 0
946 640 0
-947 -643 0
947 643 0
-948 -646 0
948 646 0
-949 -649 0
949 649 0
-950 -652 0
950 652 0
-951 -655 0
951 655 0
-952 -657 0
952 657 0
-953 -660 0
953 660 0
-954 -663 0
954 663 0
-955 -666 0
955 666 0
-956 -669 0
956 669 0
-957 -672 0
957 672 0
-958 -675 0
958 675 0
-959 -678 0
959 678 0
-960 -681 0
960 681 0
-961 -684 0
961 684 0
-962 -687 0
962 687 0
-963 -690 0
963 690 0
-964 -693 0
964 693 0
-965 -696 0
965 696 0
697 0
